12
15
5 10 5 15 5 5 10 5 15 5 10 5 10 5
3
20
7
6
8
9
3
20
7
6
8
9
4
3
20
7
6
8
9
3
20
7
6
8
9
7
8
9
7
4
5
3
20
7
6
8
9
3
20
7
6
8
9
4
3
20
7
6
8
9
3
20
7
6
8
9
7
8
9
7
4
5
8
9
7
4
5
20
7
6
8
9
3
20
7
6
8
9
4